c CNF generator v0.9
p cnf 50 50
-3 11 41 0
-12 9 15 0
40 27 15 0
39 -5 -26 0
32 -1 -44 0
-12 27 37 0
-12 -49 -50 0
33 19 31 0
40 -14 45 0
27 24 3 0
-12 28 -18 0
48 -21 7 0
-27 43 -42 0
48 10 -40 0
-45 -4 3 0
-3 -24 -50 0
-21 -2 -28 0
48 21 8 0
-26 4 43 0
-16 1 -10 0
7 8 -24 0
6 -25 10 0
-18 -11 -7 0
4 20 14 0
-47 -37 19 0
35 17 49 0
28 -35 38 0
40 10 -15 0
3 28 10 0
-2 5 -30 0
47 -41 -34 0
-25 11 27 0
6 13 26 0
-43 -48 24 0
12 45 20 0
-20 19 46 0
32 -35 -16 0
18 40 25 0
12 16 22 0
48 38 -47 0
45 38 26 0
-41 31 -12 0
39 -16 -40 0
-23 23 34 0
34 37 17 0
-2 -6 4 0
-50 50 34 0
-27 -42 44 0
37 23 5 0
31 -17 11 0
